(set-logic QF_UF)
(set-info :smt-lib-version 2.0)
(set-info :category "crafted")
(set-info :status sat)
(declare-sort U 0)
(declare-fun a () U)
(declare-fun b () U)
(declare-fun c () U)
(assert (= a b))
(assert (= b c))
(assert (= a c))
(check-sat)
